p cnf 200 1110
-101 -55 0
-101 53 0
-101 -65 0
-101 -81 0
-101 44 0
-101 31 0
-101 -16 0
-101 43 0
-101 -96 0
-101 -8 0
101 55 -53 65 81 -44 -31 16 -43 96 8 0
-102 -61 0
-102 69 0
-102 -31 0
-102 87 0
-102 -13 0
-102 29 0
-102 30 0
-102 -59 0
-102 78 0
-102 74 0
102 61 -69 31 -87 13 -29 -30 59 -78 -74 0
-103 24 0
-103 -94 0
-103 35 0
-103 3 0
-103 32 0
-103 93 0
-103 73 0
-103 37 0
-103 52 0
-103 -1 0
103 -24 94 -35 -3 -32 -93 -73 -37 -52 1 0
-104 36 0
-104 33 0
-104 4 0
-104 -5 0
-104 59 0
-104 -27 0
-104 7 0
-104 21 0
-104 -30 0
-104 40 0
104 -36 -33 -4 5 -59 27 -7 -21 30 -40 0
-105 -20 0
-105 -40 0
-105 59 0
-105 28 0
-105 -66 0
-105 82 0
-105 -92 0
-105 8 0
-105 89 0
-105 -50 0
105 20 40 -59 -28 66 -82 92 -8 -89 50 0
-106 -86 0
-106 -76 0
-106 34 0
-106 -97 0
-106 85 0
-106 70 0
-106 -41 0
-106 80 0
-106 -89 0
-106 36 0
106 86 76 -34 97 -85 -70 41 -80 89 -36 0
-107 86 0
-107 94 0
-107 2 0
-107 -78 0
-107 63 0
-107 75 0
-107 -48 0
-107 -57 0
-107 -15 0
-107 33 0
107 -86 -94 -2 78 -63 -75 48 57 15 -33 0
-108 -11 0
-108 -64 0
-108 -86 0
-108 -46 0
-108 52 0
-108 -3 0
-108 -2 0
-108 -36 0
-108 42 0
-108 -47 0
108 11 64 86 46 -52 3 2 36 -42 47 0
-109 96 0
-109 -75 0
-109 -97 0
-109 10 0
-109 48 0
-109 -46 0
-109 -85 0
-109 -76 0
-109 -56 0
-109 -86 0
109 -96 75 97 -10 -48 46 85 76 56 86 0
-110 -64 0
-110 -24 0
-110 -13 0
-110 16 0
-110 3 0
-110 -98 0
-110 -23 0
-110 75 0
-110 9 0
-110 -12 0
110 64 24 13 -16 -3 98 23 -75 -9 12 0
101 102 103 104 105 106 107 108 109 110 0
-111 60 0
-111 61 0
-111 -32 0
-111 66 0
-111 71 0
-111 91 0
-111 -16 0
-111 -50 0
-111 73 0
-111 -42 0
111 -60 -61 32 -66 -71 -91 16 50 -73 42 0
-112 -29 0
-112 24 0
-112 94 0
-112 8 0
-112 69 0
-112 -50 0
-112 32 0
-112 -4 0
-112 34 0
-112 -80 0
112 29 -24 -94 -8 -69 50 -32 4 -34 80 0
-113 -76 0
-113 78 0
-113 -44 0
-113 54 0
-113 6 0
-113 64 0
-113 -22 0
-113 97 0
-113 4 0
-113 35 0
113 76 -78 44 -54 -6 -64 22 -97 -4 -35 0
-114 -20 0
-114 10 0
-114 22 0
-114 2 0
-114 43 0
-114 57 0
-114 -39 0
-114 -1 0
-114 -95 0
-114 -47 0
114 20 -10 -22 -2 -43 -57 39 1 95 47 0
-115 99 0
-115 -19 0
-115 -20 0
-115 92 0
-115 -86 0
-115 -41 0
-115 -33 0
-115 89 0
-115 59 0
-115 88 0
115 -99 19 20 -92 86 41 33 -89 -59 -88 0
-116 -47 0
-116 -83 0
-116 74 0
-116 38 0
-116 2 0
-116 -10 0
-116 56 0
-116 -28 0
-116 42 0
-116 57 0
116 47 83 -74 -38 -2 10 -56 28 -42 -57 0
-117 67 0
-117 -53 0
-117 -55 0
-117 32 0
-117 78 0
-117 -9 0
-117 22 0
-117 -24 0
-117 -52 0
-117 66 0
117 -67 53 55 -32 -78 9 -22 24 52 -66 0
-118 -13 0
-118 5 0
-118 -38 0
-118 -35 0
-118 98 0
-118 77 0
-118 -92 0
-118 87 0
-118 -71 0
-118 97 0
118 13 -5 38 35 -98 -77 92 -87 71 -97 0
-119 15 0
-119 -38 0
-119 -19 0
-119 -98 0
-119 -78 0
-119 -55 0
-119 -3 0
-119 -97 0
-119 -47 0
-119 -87 0
119 -15 38 19 98 78 55 3 97 47 87 0
-120 -74 0
-120 78 0
-120 -94 0
-120 24 0
-120 -89 0
-120 -1 0
-120 75 0
-120 34 0
-120 3 0
-120 48 0
120 74 -78 94 -24 89 1 -75 -34 -3 -48 0
111 112 113 114 115 116 117 118 119 120 0
-121 -37 0
-121 62 0
-121 -72 0
-121 39 0
-121 -66 0
-121 42 0
-121 12 0
-121 -32 0
-121 38 0
-121 -28 0
121 37 -62 72 -39 66 -42 -12 32 -38 28 0
-122 -56 0
-122 67 0
-122 66 0
-122 50 0
-122 69 0
-122 11 0
-122 89 0
-122 93 0
-122 6 0
-122 -81 0
122 56 -67 -66 -50 -69 -11 -89 -93 -6 81 0
-123 95 0
-123 -33 0
-123 12 0
-123 -21 0
-123 -71 0
-123 -7 0
-123 -54 0
-123 -41 0
-123 -52 0
-123 -73 0
123 -95 33 -12 21 71 7 54 41 52 73 0
-124 56 0
-124 27 0
-124 8 0
-124 -23 0
-124 -48 0
-124 95 0
-124 7 0
-124 18 0
-124 80 0
-124 -79 0
124 -56 -27 -8 23 48 -95 -7 -18 -80 79 0
-125 -37 0
-125 59 0
-125 12 0
-125 89 0
-125 47 0
-125 -71 0
-125 50 0
-125 79 0
-125 17 0
-125 49 0
125 37 -59 -12 -89 -47 71 -50 -79 -17 -49 0
-126 88 0
-126 -17 0
-126 83 0
-126 -22 0
-126 -99 0
-126 -65 0
-126 -15 0
-126 -12 0
-126 68 0
-126 -94 0
126 -88 17 -83 22 99 65 15 12 -68 94 0
-127 -63 0
-127 72 0
-127 1 0
-127 26 0
-127 -97 0
-127 95 0
-127 31 0
-127 -8 0
-127 -45 0
-127 -7 0
127 63 -72 -1 -26 97 -95 -31 8 45 7 0
-128 -2 0
-128 53 0
-128 -1 0
-128 59 0
-128 -72 0
-128 66 0
-128 -29 0
-128 43 0
-128 85 0
-128 24 0
128 2 -53 1 -59 72 -66 29 -43 -85 -24 0
-129 -87 0
-129 52 0
-129 -69 0
-129 66 0
-129 15 0
-129 57 0
-129 -26 0
-129 42 0
-129 -7 0
-129 -68 0
129 87 -52 69 -66 -15 -57 26 -42 7 68 0
-130 48 0
-130 44 0
-130 28 0
-130 -76 0
-130 52 0
-130 68 0
-130 39 0
-130 17 0
-130 50 0
-130 12 0
130 -48 -44 -28 76 -52 -68 -39 -17 -50 -12 0
121 122 123 124 125 126 127 128 129 130 0
-131 77 0
-131 65 0
-131 94 0
-131 69 0
-131 91 0
-131 56 0
-131 92 0
-131 41 0
-131 -24 0
-131 20 0
131 -77 -65 -94 -69 -91 -56 -92 -41 24 -20 0
-132 -91 0
-132 -94 0
-132 -66 0
-132 -41 0
-132 -43 0
-132 30 0
-132 -5 0
-132 99 0
-132 -69 0
-132 4 0
132 91 94 66 41 43 -30 5 -99 69 -4 0
-133 -78 0
-133 -33 0
-133 -100 0
-133 -34 0
-133 -91 0
-133 -27 0
-133 64 0
-133 43 0
-133 41 0
-133 29 0
133 78 33 100 34 91 27 -64 -43 -41 -29 0
-134 81 0
-134 4 0
-134 19 0
-134 13 0
-134 80 0
-134 -7 0
-134 -9 0
-134 96 0
-134 -95 0
-134 -51 0
134 -81 -4 -19 -13 -80 7 9 -96 95 51 0
-135 -98 0
-135 96 0
-135 -77 0
-135 -69 0
-135 -36 0
-135 7 0
-135 8 0
-135 -62 0
-135 -24 0
-135 -42 0
135 98 -96 77 69 36 -7 -8 62 24 42 0
-136 61 0
-136 85 0
-136 3 0
-136 74 0
-136 59 0
-136 5 0
-136 37 0
-136 27 0
-136 -31 0
-136 21 0
136 -61 -85 -3 -74 -59 -5 -37 -27 31 -21 0
-137 -61 0
-137 -63 0
-137 -53 0
-137 62 0
-137 -90 0
-137 7 0
-137 -93 0
-137 20 0
-137 -96 0
-137 10 0
137 61 63 53 -62 90 -7 93 -20 96 -10 0
-138 18 0
-138 -93 0
-138 5 0
-138 -51 0
-138 -6 0
-138 59 0
-138 -15 0
-138 38 0
-138 79 0
-138 -66 0
138 -18 93 -5 51 6 -59 15 -38 -79 66 0
-139 72 0
-139 75 0
-139 -79 0
-139 -83 0
-139 24 0
-139 82 0
-139 -17 0
-139 -69 0
-139 32 0
-139 -20 0
139 -72 -75 79 83 -24 -82 17 69 -32 20 0
-140 73 0
-140 -4 0
-140 -47 0
-140 28 0
-140 -20 0
-140 -92 0
-140 -23 0
-140 -71 0
-140 -1 0
-140 74 0
140 -73 4 47 -28 20 92 23 71 1 -74 0
131 132 133 134 135 136 137 138 139 140 0
-141 79 0
-141 85 0
-141 -19 0
-141 23 0
-141 -71 0
-141 66 0
-141 -4 0
-141 93 0
-141 -26 0
-141 43 0
141 -79 -85 19 -23 71 -66 4 -93 26 -43 0
-142 -59 0
-142 -30 0
-142 83 0
-142 57 0
-142 97 0
-142 -72 0
-142 -1 0
-142 47 0
-142 -26 0
-142 -71 0
142 59 30 -83 -57 -97 72 1 -47 26 71 0
-143 88 0
-143 48 0
-143 6 0
-143 20 0
-143 -42 0
-143 69 0
-143 33 0
-143 -46 0
-143 -54 0
-143 72 0
143 -88 -48 -6 -20 42 -69 -33 46 54 -72 0
-144 39 0
-144 -12 0
-144 63 0
-144 62 0
-144 -93 0
-144 -24 0
-144 -34 0
-144 73 0
-144 -21 0
-144 13 0
144 -39 12 -63 -62 93 24 34 -73 21 -13 0
-145 -3 0
-145 -85 0
-145 -73 0
-145 21 0
-145 -59 0
-145 -54 0
-145 -9 0
-145 23 0
-145 88 0
-145 -41 0
145 3 85 73 -21 59 54 9 -23 -88 41 0
-146 19 0
-146 -2 0
-146 75 0
-146 50 0
-146 -45 0
-146 12 0
-146 -89 0
-146 -48 0
-146 71 0
-146 11 0
146 -19 2 -75 -50 45 -12 89 48 -71 -11 0
-147 -6 0
-147 -8 0
-147 -72 0
-147 39 0
-147 49 0
-147 16 0
-147 -21 0
-147 5 0
-147 -29 0
-147 -66 0
147 6 8 72 -39 -49 -16 21 -5 29 66 0
-148 -22 0
-148 -77 0
-148 41 0
-148 65 0
-148 94 0
-148 52 0
-148 -20 0
-148 -38 0
-148 7 0
-148 -2 0
148 22 77 -41 -65 -94 -52 20 38 -7 2 0
-149 9 0
-149 -48 0
-149 -35 0
-149 -21 0
-149 3 0
-149 -46 0
-149 36 0
-149 -56 0
-149 10 0
-149 45 0
149 -9 48 35 21 -3 46 -36 56 -10 -45 0
-150 -80 0
-150 36 0
-150 44 0
-150 -99 0
-150 -60 0
-150 42 0
-150 12 0
-150 -49 0
-150 61 0
-150 -82 0
150 80 -36 -44 99 60 -42 -12 49 -61 82 0
141 142 143 144 145 146 147 148 149 150 0
-151 -48 0
-151 32 0
-151 -31 0
-151 96 0
-151 60 0
-151 46 0
-151 61 0
-151 -80 0
-151 -30 0
-151 -85 0
151 48 -32 31 -96 -60 -46 -61 80 30 85 0
-152 32 0
-152 85 0
-152 -1 0
-152 -2 0
-152 -69 0
-152 66 0
-152 -15 0
-152 14 0
-152 71 0
-152 -30 0
152 -32 -85 1 2 69 -66 15 -14 -71 30 0
-153 -84 0
-153 80 0
-153 35 0
-153 -59 0
-153 2 0
-153 52 0
-153 -79 0
-153 -75 0
-153 -18 0
-153 -20 0
153 84 -80 -35 59 -2 -52 79 75 18 20 0
-154 -38 0
-154 9 0
-154 49 0
-154 77 0
-154 27 0
-154 52 0
-154 8 0
-154 -71 0
-154 -41 0
-154 -43 0
154 38 -9 -49 -77 -27 -52 -8 71 41 43 0
-155 -80 0
-155 25 0
-155 -21 0
-155 -48 0
-155 -57 0
-155 85 0
-155 -27 0
-155 -65 0
-155 -75 0
-155 1 0
155 80 -25 21 48 57 -85 27 65 75 -1 0
-156 -94 0
-156 96 0
-156 60 0
-156 -31 0
-156 -8 0
-156 -98 0
-156 6 0
-156 84 0
-156 -88 0
-156 59 0
156 94 -96 -60 31 8 98 -6 -84 88 -59 0
-157 -91 0
-157 -90 0
-157 -18 0
-157 72 0
-157 -99 0
-157 58 0
-157 -14 0
-157 -89 0
-157 76 0
-157 -13 0
157 91 90 18 -72 99 -58 14 89 -76 13 0
-158 -28 0
-158 15 0
-158 -2 0
-158 -30 0
-158 -69 0
-158 -50 0
-158 7 0
-158 10 0
-158 -60 0
-158 95 0
158 28 -15 2 30 69 50 -7 -10 60 -95 0
-159 47 0
-159 94 0
-159 85 0
-159 83 0
-159 100 0
-159 -17 0
-159 37 0
-159 74 0
-159 -99 0
-159 51 0
159 -47 -94 -85 -83 -100 17 -37 -74 99 -51 0
-160 87 0
-160 -16 0
-160 1 0
-160 62 0
-160 73 0
-160 -59 0
-160 -43 0
-160 -32 0
-160 -84 0
-160 -78 0
160 -87 16 -1 -62 -73 59 43 32 84 78 0
151 152 153 154 155 156 157 158 159 160 0
-161 78 0
-161 -66 0
-161 -17 0
-161 77 0
-161 -14 0
-161 70 0
-161 -26 0
-161 -56 0
-161 4 0
-161 -40 0
161 -78 66 17 -77 14 -70 26 56 -4 40 0
-162 -79 0
-162 37 0
-162 90 0
-162 -93 0
-162 17 0
-162 -21 0
-162 -69 0
-162 -68 0
-162 11 0
-162 -82 0
162 79 -37 -90 93 -17 21 69 68 -11 82 0
-163 -57 0
-163 -72 0
-163 -89 0
-163 31 0
-163 88 0
-163 81 0
-163 -15 0
-163 13 0
-163 99 0
-163 83 0
163 57 72 89 -31 -88 -81 15 -13 -99 -83 0
-164 62 0
-164 97 0
-164 94 0
-164 -53 0
-164 -63 0
-164 -46 0
-164 8 0
-164 -71 0
-164 -35 0
-164 11 0
164 -62 -97 -94 53 63 46 -8 71 35 -11 0
-165 96 0
-165 -68 0
-165 -40 0
-165 -27 0
-165 69 0
-165 20 0
-165 66 0
-165 -11 0
-165 14 0
-165 -62 0
165 -96 68 40 27 -69 -20 -66 11 -14 62 0
-166 -17 0
-166 75 0
-166 14 0
-166 -10 0
-166 45 0
-166 -96 0
-166 56 0
-166 -28 0
-166 -22 0
-166 63 0
166 17 -75 -14 10 -45 96 -56 28 22 -63 0
-167 60 0
-167 -95 0
-167 -12 0
-167 88 0
-167 72 0
-167 -26 0
-167 -55 0
-167 -84 0
-167 71 0
-167 -6 0
167 -60 95 12 -88 -72 26 55 84 -71 6 0
-168 -51 0
-168 -87 0
-168 65 0
-168 -33 0
-168 -92 0
-168 -69 0
-168 36 0
-168 -64 0
-168 31 0
-168 72 0
168 51 87 -65 33 92 69 -36 64 -31 -72 0
-169 -8 0
-169 -74 0
-169 -35 0
-169 -80 0
-169 27 0
-169 -6 0
-169 68 0
-169 -98 0
-169 38 0
-169 56 0
169 8 74 35 80 -27 6 -68 98 -38 -56 0
-170 -4 0
-170 -89 0
-170 -34 0
-170 -48 0
-170 20 0
-170 -56 0
-170 91 0
-170 -81 0
-170 -62 0
-170 -57 0
170 4 89 34 48 -20 56 -91 81 62 57 0
161 162 163 164 165 166 167 168 169 170 0
-171 50 0
-171 66 0
-171 -63 0
-171 46 0
-171 -41 0
-171 97 0
-171 29 0
-171 -70 0
-171 21 0
-171 -86 0
171 -50 -66 63 -46 41 -97 -29 70 -21 86 0
-172 -20 0
-172 -90 0
-172 -95 0
-172 -84 0
-172 -33 0
-172 -61 0
-172 41 0
-172 100 0
-172 -8 0
-172 -76 0
172 20 90 95 84 33 61 -41 -100 8 76 0
-173 -90 0
-173 24 0
-173 82 0
-173 -60 0
-173 58 0
-173 17 0
-173 62 0
-173 10 0
-173 20 0
-173 -46 0
173 90 -24 -82 60 -58 -17 -62 -10 -20 46 0
-174 65 0
-174 -38 0
-174 42 0
-174 -54 0
-174 33 0
-174 -96 0
-174 52 0
-174 -37 0
-174 73 0
-174 -5 0
174 -65 38 -42 54 -33 96 -52 37 -73 5 0
-175 17 0
-175 44 0
-175 -74 0
-175 -82 0
-175 -88 0
-175 79 0
-175 -55 0
-175 -10 0
-175 31 0
-175 25 0
175 -17 -44 74 82 88 -79 55 10 -31 -25 0
-176 30 0
-176 -68 0
-176 -79 0
-176 -28 0
-176 -52 0
-176 -35 0
-176 57 0
-176 -48 0
-176 -8 0
-176 64 0
176 -30 68 79 28 52 35 -57 48 8 -64 0
-177 6 0
-177 -32 0
-177 80 0
-177 47 0
-177 -75 0
-177 -41 0
-177 -50 0
-177 14 0
-177 5 0
-177 -4 0
177 -6 32 -80 -47 75 41 50 -14 -5 4 0
-178 -72 0
-178 -40 0
-178 -86 0
-178 15 0
-178 100 0
-178 -58 0
-178 34 0
-178 -13 0
-178 -60 0
-178 -48 0
178 72 40 86 -15 -100 58 -34 13 60 48 0
-179 95 0
-179 49 0
-179 62 0
-179 -60 0
-179 96 0
-179 -2 0
-179 28 0
-179 -82 0
-179 85 0
-179 25 0
179 -95 -49 -62 60 -96 2 -28 82 -85 -25 0
-180 29 0
-180 -54 0
-180 -56 0
-180 69 0
-180 -14 0
-180 89 0
-180 93 0
-180 1 0
-180 -30 0
-180 72 0
180 -29 54 56 -69 14 -89 -93 -1 30 -72 0
171 172 173 174 175 176 177 178 179 180 0
-181 -83 0
-181 93 0
-181 20 0
-181 92 0
-181 33 0
-181 100 0
-181 25 0
-181 -37 0
-181 65 0
-181 17 0
181 83 -93 -20 -92 -33 -100 -25 37 -65 -17 0
-182 68 0
-182 62 0
-182 -29 0
-182 63 0
-182 85 0
-182 92 0
-182 -76 0
-182 -93 0
-182 -33 0
-182 -54 0
182 -68 -62 29 -63 -85 -92 76 93 33 54 0
-183 34 0
-183 -84 0
-183 55 0
-183 -14 0
-183 2 0
-183 91 0
-183 -28 0
-183 3 0
-183 -50 0
-183 9 0
183 -34 84 -55 14 -2 -91 28 -3 50 -9 0
-184 -78 0
-184 -31 0
-184 -39 0
-184 -66 0
-184 -36 0
-184 -54 0
-184 93 0
-184 -74 0
-184 19 0
-184 97 0
184 78 31 39 66 36 54 -93 74 -19 -97 0
-185 -74 0
-185 -60 0
-185 -58 0
-185 -16 0
-185 83 0
-185 80 0
-185 35 0
-185 68 0
-185 29 0
-185 -37 0
185 74 60 58 16 -83 -80 -35 -68 -29 37 0
-186 -23 0
-186 -69 0
-186 -89 0
-186 -35 0
-186 57 0
-186 -68 0
-186 28 0
-186 -77 0
-186 -51 0
-186 -45 0
186 23 69 89 35 -57 68 -28 77 51 45 0
-187 63 0
-187 -59 0
-187 -11 0
-187 -81 0
-187 -27 0
-187 49 0
-187 3 0
-187 -57 0
-187 6 0
-187 -42 0
187 -63 59 11 81 27 -49 -3 57 -6 42 0
-188 -93 0
-188 -77 0
-188 -32 0
-188 -81 0
-188 15 0
-188 -54 0
-188 59 0
-188 95 0
-188 19 0
-188 52 0
188 93 77 32 81 -15 54 -59 -95 -19 -52 0
-189 -34 0
-189 -83 0
-189 -59 0
-189 52 0
-189 -57 0
-189 -96 0
-189 -10 0
-189 38 0
-189 -51 0
-189 -41 0
189 34 83 59 -52 57 96 10 -38 51 41 0
-190 -85 0
-190 -71 0
-190 93 0
-190 84 0
-190 -47 0
-190 52 0
-190 -37 0
-190 42 0
-190 17 0
-190 72 0
190 85 71 -93 -84 47 -52 37 -42 -17 -72 0
181 182 183 184 185 186 187 188 189 190 0
-191 -70 0
-191 23 0
-191 53 0
-191 -45 0
-191 88 0
-191 -10 0
-191 94 0
-191 78 0
-191 -75 0
-191 -50 0
191 70 -23 -53 45 -88 10 -94 -78 75 50 0
-192 9 0
-192 -62 0
-192 33 0
-192 -29 0
-192 76 0
-192 -21 0
-192 13 0
-192 73 0
-192 -89 0
-192 60 0
192 -9 62 -33 29 -76 21 -13 -73 89 -60 0
-193 -82 0
-193 -59 0
-193 14 0
-193 -54 0
-193 63 0
-193 73 0
-193 57 0
-193 -38 0
-193 -36 0
-193 -72 0
193 82 59 -14 54 -63 -73 -57 38 36 72 0
-194 -40 0
-194 5 0
-194 -44 0
-194 -25 0
-194 98 0
-194 56 0
-194 77 0
-194 -35 0
-194 100 0
-194 -24 0
194 40 -5 44 25 -98 -56 -77 35 -100 24 0
-195 -14 0
-195 31 0
-195 16 0
-195 73 0
-195 51 0
-195 78 0
-195 77 0
-195 43 0
-195 79 0
-195 3 0
195 14 -31 -16 -73 -51 -78 -77 -43 -79 -3 0
-196 -35 0
-196 67 0
-196 45 0
-196 -94 0
-196 23 0
-196 46 0
-196 -31 0
-196 -37 0
-196 93 0
-196 -76 0
196 35 -67 -45 94 -23 -46 31 37 -93 76 0
-197 -21 0
-197 26 0
-197 -97 0
-197 -70 0
-197 95 0
-197 -90 0
-197 -30 0
-197 -88 0
-197 42 0
-197 -11 0
197 21 -26 97 70 -95 90 30 88 -42 11 0
-198 -69 0
-198 95 0
-198 51 0
-198 -90 0
-198 38 0
-198 67 0
-198 3 0
-198 -57 0
-198 -8 0
-198 22 0
198 69 -95 -51 90 -38 -67 -3 57 8 -22 0
-199 95 0
-199 -82 0
-199 -89 0
-199 -79 0
-199 -45 0
-199 -6 0
-199 -96 0
-199 -71 0
-199 -4 0
-199 7 0
199 -95 82 89 79 45 6 96 71 4 -7 0
-200 -73 0
-200 -35 0
-200 40 0
-200 78 0
-200 20 0
-200 79 0
-200 27 0
-200 57 0
-200 -25 0
-200 -95 0
200 73 35 -40 -78 -20 -79 -27 -57 25 95 0
191 192 193 194 195 196 197 198 199 200 0
